Version identifier: 12.10.0.0 | 2019-11-26 | 843d4de
CPXPARAM_Read_DataCheck                          1
CPXPARAM_RandomSeed                              201903125
CPXPARAM_TimeLimit                               7200
Parallel mode: deterministic, using up to 8 threads for concurrent optimization:
 * Starting dual Simplex on 1 thread...
 * Starting Barrier on 6 threads...
 * Starting primal Simplex on 1 thread...
Tried aggregator 1 time.
No LP presolve or aggregator reductions.
Presolve time = 0.00 sec. (2.47 ticks)

Iteration log . . .
Iteration:     1   Dual objective     =           940.000000
Iteration:    96   Dual objective     =           940.000000
Perturbation started.
Iteration:   101   Dual objective     =           940.000000
Iteration:   208   Dual objective     =           940.011876
Iteration:   379   Dual objective     =           940.011952
Iteration:   549   Dual objective     =           940.011955
Iteration:   719   Dual objective     =           940.011957
Iteration:   898   Dual objective     =           940.011958
Removing perturbation.

Dual simplex solved model.

